TCS_Benchmarks/redos_fix/regexlib2_output_distinct_2903_2902_98_0.smt2
(set-logic QF_S)
(declare-const x String)
(assert (str.in.re x (re.inter  (re.++ (re.+  (re.++  (str.to.re "\u{6e}")  (re.union  (re.++  (str.to.re "\u{66}")  (str.to.re "\u{6f}"))  (str.to.re "\u{74}"))) ) (re.+  (re.union  (str.to.re "\u{71}") (re.union  (str.to.re "\u{72}") (re.union  (str.to.re "\u{73}") (re.union  (str.to.re "\u{64}") (re.union  (str.to.re "\u{74}") (re.union  (str.to.re "\u{65}") (re.union  (str.to.re "\u{6c}") (re.union  (str.to.re "\u{6d}") (re.union  (str.to.re "\u{6e}")  (str.to.re "\u{6f}")))))))))) )) (re.+  (re.union  (str.to.re "\u{71}") (re.union  (str.to.re "\u{72}") (re.union  (str.to.re "\u{73}") (re.union  (str.to.re "\u{64}") (re.union  (str.to.re "\u{74}") (re.union  (str.to.re "\u{65}") (re.union  (str.to.re "\u{6c}") (re.union  (str.to.re "\u{6d}") (re.union  (str.to.re "\u{6e}")  (str.to.re "\u{6f}")))))))))) )  (re.++  (str.to.re "\u{6e}") (re.* (re.union (re.range "\u{00}" "\u{09}") (re.range "\u{0b}" "\u{0c}") (re.range "\u{0e}" "\u{84}") (re.range "\u{86}" "\u{ff}")) )) )))
(check-sat)
(get-model)