TCS_Benchmarks/redos_fix/regexlib2_output_distinct_2903_2902_98_0.txt
(n(fo|t))+([qrsdtelmno])+
([qrsdtelmno])+
n.*